language ESSENCE' 1.0
letting lastdx=91
letting cage be [
[16,14,9,0,0, 0,0, 0,0, 0,0],
[57,14,5,15,5,15,6,16,6,16,5],
[33,16,4,16,3,16,2,16,1,15,1],
[16,11,10,0,0, 0,0, 0,0, 0,0],
[18,16,11,15,11,0,0, 0,0, 0,0],
[19,16,14,16,15,15,15,15,14,14,14],
[39,1,13,1,14,2,14,3,14,0,0],
[13,8,8,0,0, 0,0, 0,0, 0,0],
[35,11,15,12,15,13,15,13,16,0,0],
[2,9,2,0,0, 0,0, 0,0, 0,0],
[46,14,16,14,15,15,16,16,16,0,0],
[32,1,2,2,2,3,2,0,0, 0,0],
[28,10,11,9,11,9,12,0,0, 0,0],
[9,3,12,0,0, 0,0, 0,0, 0,0],
[37,6,4,7,4,7,3,6,3,0,0],
[14,10,1,0,0, 0,0, 0,0, 0,0],
[41,6,1,6,2,7,2,7,1,0,0],
[2,1,1,0,0, 0,0, 0,0, 0,0],
[14,9,14,0,0, 0,0, 0,0, 0,0],
[12,3,7,3,8,0,0, 0,0, 0,0],
[2,11,9,0,0, 0,0, 0,0, 0,0],
[23,9,10,9,9,0,0, 0,0, 0,0],
[27,1,9,1,10,2,10,2,9,0,0],
[41,10,3,9,3,9,4,9,5,10,5],
[15,6,5,0,0, 0,0, 0,0, 0,0],
[9,6,13,7,13,0,0, 0,0, 0,0],
[19,7,7,8,7,9,7,0,0, 0,0],
[37,10,4,11,4,11,5,11,6,12,6],
[4,4,13,0,0, 0,0, 0,0, 0,0],
[32,12,11,12,10,13,10,0,0, 0,0],
[38,1,3,1,4,1,5,2,5,2,6],
[21,12,4,12,3,0,0, 0,0, 0,0],
[18,3,16,3,15,0,0, 0,0, 0,0],
[33,11,2,10,2,11,3,12,2,13,2],
[19,13,9,13,8,0,0, 0,0, 0,0],
[5,14,6,0,0, 0,0, 0,0, 0,0],
[25,14,4,13,4,0,0, 0,0, 0,0],
[31,14,13,15,13,16,13,0,0, 0,0],
[7,2,4,0,0, 0,0, 0,0, 0,0],
[2,16,8,0,0, 0,0, 0,0, 0,0],
[3,6,14,0,0, 0,0, 0,0, 0,0],
[2,5,15,0,0, 0,0, 0,0, 0,0],
[14,7,8,0,0, 0,0, 0,0, 0,0],
[12,2,16,1,16,0,0, 0,0, 0,0],
[49,14,1,14,2,15,2,15,3,15,4],
[20,4,15,4,16,0,0, 0,0, 0,0],
[21,12,1,11,1,13,1,0,0, 0,0],
[20,14,12,14,11,13,11,14,10,0,0],
[14,4,9,0,0, 0,0, 0,0, 0,0],
[27,1,6,1,7,1,8,0,0, 0,0],
[37,2,1,3,1,4,1,4,2,0,0],
[27,14,8,15,8,15,9,15,10,0,0],
[20,10,8,9,8,0,0, 0,0, 0,0],
[46,15,7,16,7,14,7,13,7,0,0],
[15,1,11,0,0, 0,0, 0,0, 0,0],
[1,6,6,0,0, 0,0, 0,0, 0,0],
[16,8,12,0,0, 0,0, 0,0, 0,0],
[6,8,10,0,0, 0,0, 0,0, 0,0],
[41,11,8,11,7,10,7,10,6,0,0],
[19,1,15,2,15,0,0, 0,0, 0,0],
[9,13,6,0,0, 0,0, 0,0, 0,0],
[8,4,7,0,0, 0,0, 0,0, 0,0],
[26,2,7,2,8,0,0, 0,0, 0,0],
[33,8,2,8,1,9,1,0,0, 0,0],
[58,7,14,7,15,7,16,8,16,0,0],
[14,10,9,10,10,0,0, 0,0, 0,0],
[34,5,5,5,4,4,4,4,5,4,6],
[13,7,6,7,5,0,0, 0,0, 0,0],
[6,9,16,0,0, 0,0, 0,0, 0,0],
[12,16,10,16,9,0,0, 0,0, 0,0],
[49,5,8,4,8,5,7,5,6,6,7],
[44,6,10,6,11,7,11,8,11,0,0],
[2,12,7,0,0, 0,0, 0,0, 0,0],
[5,2,3,0,0, 0,0, 0,0, 0,0],
[23,3,3,4,3,0,0, 0,0, 0,0],
[21,5,11,4,11,4,12,0,0, 0,0],
[27,5,2,5,1,5,3,0,0, 0,0],
[47,10,12,11,12,11,11,11,13,12,13],
[31,2,11,2,12,1,12,0,0, 0,0],
[9,2,13,3,13,0,0, 0,0, 0,0],
[15,3,4,0,0, 0,0, 0,0, 0,0],
[18,3,5,3,6,0,0, 0,0, 0,0],
[17,3,9,3,10,3,11,0,0, 0,0],
[5,5,16,0,0, 0,0, 0,0, 0,0],
[11,6,12,7,12,0,0, 0,0, 0,0],
[10,6,15,6,16,0,0, 0,0, 0,0],
[22,7,9,7,10,8,9,0,0, 0,0],
[15,10,16,11,16,12,16,0,0, 0,0],
[17,12,5,13,5,0,0, 0,0, 0,0],
[17,12,8,12,9,0,0, 0,0, 0,0],
[20,13,3,14,3,0,0, 0,0, 0,0],
[18,15,12,16,12,0,0, 0,0, 0,0]
]
